60
2 1 2
3 0 2
3 1 2
3 2 1
4 0 1
4 2 1
4 3 2
5 4 2
6 1 2
6 5 2
7 0 3
7 1 2
7 2 3
7 4 1
7 6 1
8 0 2
8 2 2
8 4 3
8 7 1
9 4 2
9 6 2
9 8 1
10 0 1
10 1 1
10 2 3
10 3 3
10 4 2
10 9 2
11 0 3
11 1 3
11 2 2
11 3 2
11 5 3
11 6 1
11 7 2
11 9 1
12 0 1
12 5 1
12 6 2
12 7 3
12 8 1
12 11 3
13 0 3
13 2 3
13 4 2
13 7 3
13 8 2
13 9 3
14 4 3
14 8 3
14 12 1
15 0 2
15 1 3
15 3 2
15 11 3
15 12 2
15 14 2
16 0 1
16 2 2
16 5 3
16 8 3
16 9 1
16 11 1
16 13 2
16 15 1
17 0 1
17 1 2
17 2 3
17 4 1
17 6 3
17 8 1
17 9 1
17 10 1
17 11 3
18 3 2
18 5 2
18 10 3
18 11 3
18 13 3
18 14 3
19 4 3
19 5 3
19 6 1
19 7 3
19 8 1
19 9 3
19 10 2
19 13 2
19 14 3
19 15 3
19 16 2
19 17 2
19 18 3
20 2 1
20 3 1
20 5 3
20 9 3
20 11 2
20 14 3
20 19 3
21 2 1
21 3 1
21 4 3
21 7 1
21 8 1
21 9 2
21 12 3
21 14 3
21 16 1
21 17 2
22 1 1
22 2 2
22 7 2
22 8 2
22 9 3
22 10 2
22 11 1
22 15 3
22 16 3
22 17 1
22 18 3
22 19 3
23 5 2
23 6 3
23 8 3
23 9 3
23 10 3
23 11 2
23 15 2
23 16 1
23 17 2
23 18 2
23 19 1
23 21 2
24 0 2
24 4 1
24 6 3
24 8 3
24 10 3
24 11 2
24 17 2
24 21 3
25 1 3
25 2 2
25 7 1
25 9 3
25 11 2
25 14 3
25 15 2
25 16 2
25 23 2
25 24 3
26 0 2
26 3 3
26 4 3
26 8 2
26 9 2
26 10 2
26 11 1
26 12 2
26 13 1
26 16 2
26 17 3
26 18 2
26 19 3
26 21 2
26 22 3
26 24 2
27 0 3
27 1 3
27 3 3
27 4 3
27 7 1
27 8 2
27 10 1
27 11 1
27 12 2
27 14 3
27 18 1
27 21 3
27 24 3
28 0 2
28 1 3
28 2 2
28 3 3
28 9 1
28 11 3
28 13 1
28 16 2
28 20 3
28 22 3
28 23 3
28 27 1
29 2 1
29 3 3
29 4 2
29 6 2
29 7 1
29 8 1
29 10 1
29 11 2
29 13 1
29 20 1
29 22 2
29 23 3
29 26 3
30 0 2
30 2 2
30 4 3
30 5 3
30 6 3
30 7 2
30 8 1
30 9 2
30 11 3
30 12 1
30 13 2
30 14 3
30 15 3
30 16 2
30 20 3
30 21 2
30 24 3
30 25 1
30 27 3
30 29 1
31 0 1
31 1 1
31 4 2
31 7 3
31 9 1
31 11 2
31 16 2
31 17 1
31 20 3
31 23 2
31 28 3
32 1 2
32 2 1
32 7 3
32 8 2
32 12 3
32 13 2
32 14 1
32 15 3
32 16 1
32 17 2
32 18 2
32 23 3
32 24 2
32 25 1
32 27 1
32 29 3
32 30 3
32 31 2
33 0 3
33 2 3
33 3 1
33 5 3
33 7 1
33 9 2
33 10 2
33 13 1
33 15 1
33 16 3
33 18 2
33 20 2
33 22 1
33 23 3
33 24 1
33 25 3
33 27 3
33 29 3
33 30 1
33 31 3
33 32 2
34 2 2
34 3 2
34 4 2
34 7 1
34 9 1
34 13 2
34 16 1
34 18 1
34 20 2
34 21 2
34 22 3
34 23 1
34 25 3
34 29 2
34 31 1
34 33 3
35 2 2
35 6 1
35 7 3
35 8 3
35 9 3
35 10 2
35 15 2
35 16 1
35 17 2
35 18 1
35 19 1
35 20 1
35 21 1
35 23 2
35 26 2
35 28 3
35 29 1
35 30 2
35 31 3
36 1 1
36 2 3
36 5 3
36 6 1
36 7 2
36 8 1
36 9 3
36 11 3
36 12 1
36 13 3
36 15 3
36 16 2
36 17 2
36 18 2
36 19 2
36 20 1
36 23 1
36 24 1
36 25 2
36 27 2
36 30 3
36 33 1
36 34 1
36 35 1
37 0 2
37 1 1
37 3 2
37 4 3
37 5 2
37 8 1
37 12 3
37 14 2
37 16 2
37 17 3
37 18 2
37 21 1
37 22 1
37 24 1
37 26 1
37 30 1
37 31 2
37 32 1
37 35 1
38 1 1
38 3 2
38 4 3
38 5 1
38 9 3
38 10 3
38 11 1
38 13 2
38 14 3
38 16 1
38 18 2
38 19 1
38 20 3
38 22 3
38 25 3
38 26 3
38 27 2
38 29 1
38 30 2
38 32 1
38 35 3
38 37 1
39 1 1
39 2 3
39 4 3
39 5 3
39 6 3
39 7 3
39 11 2
39 13 2
39 16 1
39 17 1
39 19 3
39 23 1
39 27 1
39 30 3
39 35 2
39 36 2
40 1 3
40 2 3
40 3 3
40 7 3
40 9 3
40 13 3
40 14 3
40 16 3
40 18 3
40 19 2
40 21 3
40 22 2
40 24 1
40 27 1
40 28 3
40 29 1
40 30 2
40 31 1
40 34 3
40 35 3
40 36 3
40 37 3
41 0 2
41 1 2
41 3 1
41 5 3
41 8 1
41 10 3
41 12 2
41 15 3
41 17 1
41 21 3
41 24 3
41 25 2
41 26 1
41 28 1
41 30 2
41 33 3
41 35 3
41 38 1
41 39 2
41 40 1
42 3 1
42 5 2
42 7 2
42 9 3
42 10 1
42 12 3
42 13 3
42 16 3
42 17 3
42 18 2
42 19 3
42 23 3
42 26 1
42 27 1
42 29 1
42 30 1
42 33 1
42 34 2
42 36 1
42 38 3
42 40 2
42 41 2
43 0 3
43 1 2
43 3 2
43 4 2
43 5 2
43 6 1
43 8 1
43 9 3
43 10 1
43 13 3
43 15 3
43 17 3
43 19 3
43 20 1
43 22 1
43 23 2
43 24 2
43 25 2
43 26 3
43 28 2
43 30 3
43 32 2
43 33 2
43 37 2
43 38 1
43 39 1
43 40 2
43 41 1
44 1 1
44 4 1
44 5 3
44 6 1
44 8 3
44 10 3
44 11 3
44 13 2
44 14 2
44 15 2
44 16 3
44 18 2
44 19 2
44 20 3
44 22 1
44 23 3
44 25 2
44 26 3
44 27 3
44 29 2
44 30 1
44 34 1
44 35 3
44 37 1
44 38 2
44 39 1
44 41 2
44 42 1
44 43 1
45 0 1
45 1 3
45 4 1
45 5 3
45 6 3
45 8 2
45 9 1
45 10 1
45 13 1
45 18 2
45 19 1
45 23 1
45 27 2
45 29 1
45 31 1
45 34 1
45 41 1
45 43 1
46 5 2
46 8 1
46 11 2
46 12 2
46 13 3
46 16 3
46 19 2
46 20 3
46 22 3
46 23 1
46 24 1
46 34 2
46 35 2
46 36 3
46 37 3
46 38 2
46 39 1
46 40 1
46 42 2
46 43 2
46 44 2
46 45 2
47 2 2
47 5 1
47 6 2
47 7 3
47 8 1
47 9 2
47 12 1
47 13 3
47 15 3
47 16 1
47 19 1
47 20 1
47 21 3
47 24 2
47 25 1
47 26 2
47 28 1
47 29 1
47 31 2
47 32 3
47 33 3
47 34 3
47 44 2
47 46 1
48 3 1
48 4 3
48 7 1
48 10 3
48 13 2
48 17 2
48 20 1
48 21 3
48 22 2
48 23 3
48 24 3
48 26 1
48 28 3
48 29 1
48 30 1
48 31 3
48 32 1
48 34 3
48 35 1
48 36 1
48 41 1
48 43 2
48 44 3
48 45 3
48 46 2
49 3 1
49 7 1
49 9 2
49 17 3
49 19 1
49 20 3
49 21 1
49 22 3
49 24 3
49 26 2
49 29 2
49 30 1
49 33 3
49 34 1
49 36 1
49 37 1
49 38 2
49 40 3
49 42 2
49 44 1
50 0 1
50 1 3
50 5 1
50 7 1
50 8 3
50 11 1
50 12 1
50 14 2
50 16 1
50 17 1
50 19 2
50 21 1
50 24 3
50 25 2
50 26 2
50 30 3
50 31 1
50 34 1
50 38 2
50 40 3
50 42 1
50 43 3
50 47 1
50 48 1
50 49 2
51 9 1
51 16 2
51 18 1
51 20 3
51 21 2
51 22 3
51 23 3
51 24 3
51 25 1
51 27 3
51 29 1
51 32 1
51 35 3
51 38 2
51 39 2
51 41 1
51 43 3
51 45 2
51 48 1
51 49 2
52 0 1
52 1 1
52 6 3
52 8 2
52 11 3
52 12 1
52 13 3
52 14 2
52 16 2
52 17 3
52 21 1
52 22 1
52 23 2
52 25 3
52 26 1
52 27 3
52 28 3
52 29 3
52 31 2
52 34 2
52 35 2
52 36 2
52 39 1
52 40 1
52 48 3
52 49 3
52 50 1
53 1 2
53 3 3
53 4 1
53 5 2
53 9 1
53 10 2
53 12 2
53 13 3
53 14 2
53 17 1
53 18 3
53 19 2
53 20 3
53 21 2
53 22 3
53 25 1
53 27 3
53 32 2
53 35 1
53 42 1
53 45 3
53 47 2
53 49 2
53 50 1
53 51 2
54 0 2
54 3 3
54 4 3
54 5 1
54 8 1
54 11 1
54 12 1
54 15 3
54 17 2
54 18 2
54 20 2
54 21 1
54 25 1
54 28 1
54 29 3
54 31 3
54 32 2
54 33 1
54 34 1
54 36 2
54 37 2
54 38 3
54 39 3
54 40 2
54 42 1
54 43 2
54 44 1
54 45 3
55 0 3
55 2 1
55 5 3
55 7 2
55 8 1
55 9 2
55 11 3
55 12 3
55 16 2
55 20 1
55 25 2
55 27 2
55 28 1
55 31 1
55 34 3
55 36 2
55 46 2
55 47 2
55 50 2
55 51 1
55 53 2
55 54 3
56 6 2
56 8 2
56 9 2
56 12 3
56 13 1
56 14 2
56 15 1
56 17 3
56 24 1
56 25 1
56 26 1
56 27 1
56 32 1
56 37 1
56 42 3
56 45 3
56 49 3
56 54 1
57 2 2
57 3 3
57 6 2
57 7 3
57 11 2
57 13 1
57 14 1
57 15 3
57 18 3
57 19 3
57 25 3
57 26 3
57 28 2
57 30 2
57 31 3
57 32 1
57 36 3
57 39 1
57 41 3
57 42 2
57 46 2
57 51 2
57 56 1
58 2 2
58 5 1
58 7 1
58 10 1
58 12 2
58 15 3
58 16 1
58 17 2
58 19 2
58 20 1
58 21 2
58 22 3
58 24 1
58 25 3
58 26 1
58 27 2
58 28 2
58 29 2
58 32 2
58 33 2
58 36 3
58 38 3
58 41 1
58 43 1
58 44 2
58 45 1
58 46 1
58 48 3
58 49 3
58 51 1
58 54 1
58 55 1
58 56 1
58 57 2
59 0 2
59 1 2
59 3 2
59 8 3
59 9 2
59 10 2
59 11 1
59 12 1
59 13 3
59 14 1
59 15 2
59 17 3
59 18 3
59 19 2
59 20 3
59 21 1
59 22 3
59 23 3
59 25 3
59 28 1
59 29 2
59 31 2
59 32 2
59 35 2
59 36 2
59 38 1
59 39 3
59 40 2
59 41 2
59 42 3
59 47 2
59 48 2
59 49 3
59 51 3
59 52 3
59 57 2
